NAME: berlin52
TYPE: TSP
COMMENT: 10 locations in Berlin (Groetschel)
DIMENSION: 10
EDGE_WEIGHT_TYPE: EUC_2D
NODE_COORD_SECTION
1 565.0 575.0
2 25.0 185.0
3 345.0 750.0
4 845.0 655.0
5 880.0 660.0
6 300.0 465.0
7 520.0 585.0
8 835.0 625.0
9 1250.0 400.0
10 700.0 500.0
EOF

